CPXPARAM_TimeLimit                               7200
CPXPARAM_Read_DataCheck                          1
Tried aggregator 1 time.
LP Presolve eliminated 11 rows and 0 columns.
Reduced LP has 179 rows, 76 columns, and 523 nonzeros.
Presolve time = 0.00 sec. (0.09 ticks)
Initializing dual steep norms . . .

Iteration log . . .
Iteration:     1   Dual objective     =            33.000000
Perturbation started.
Iteration:    51   Dual objective     =            33.000000
Removing perturbation.
